* ENCODING=ISO-8859-1
NAME          CPLEX
ROWS
 N  obj1    
 G  c1      
 G  c2      
 G  c3      
 G  c4      
 G  c5      
 G  c6      
 G  c7      
 G  c8      
 G  c9      
 G  c10     
 G  c11     
 G  c12     
 G  c13     
 G  c14     
 G  c15     
 G  c16     
 G  c17     
 G  c18     
 G  c19     
 G  c20     
 G  c21     
 G  c22     
 G  c23     
 G  c24     
 G  c25     
COLUMNS
    MARK0000  'MARKER'                 'INTORG'
    x1        obj1                            1
    x1        c14                           869
    x1        c24                           361
    x1        c25                           942
    x2        obj1                            1
    x2        c23                           357
    x3        obj1                            1
    x3        c11                           760
    x3        c12                           866
    x3        c20                           581
    x4        obj1                            1
    x4        c12                           751
    x4        c17                           392
    x4        c19                           195
    x4        c21                           451
    x5        obj1                            1
    x5        c1                            339
    x6        obj1                            1
    x6        c10                           751
    x6        c14                           843
    x6        c19                           998
    x7        obj1                            1
    x7        c4                            164
    x7        c13                           558
    x8        obj1                            1
    x8        c17                           103
    x8        c25                           168
    x9        obj1                            1
    x9        c1                            381
    x9        c5                            813
    x9        c18                           124
    x9        c22                           839
    x10       obj1                            1
    x10       c2                            577
    x10       c3                            850
    x10       c13                           333
    x10       c19                           457
    x10       c23                           235
    x10       c24                           842
    x11       obj1                            1
    x11       c1                            446
    x11       c16                           208
    x12       obj1                            1
    x12       c7                            969
    x12       c12                           498
    x12       c21                           192
    x13       obj1                            1
    x13       c11                           980
    x13       c12                           548
    x13       c20                           884
    x14       obj1                            1
    x14       c24                           574
    x15       obj1                            1
    x15       c5                            772
    x15       c8                            120
    x15       c22                           332
    x16       obj1                            1
    x16       c9                            460
    x16       c14                           839
    x16       c18                           851
    x17       obj1                            1
    x17       c2                            251
    x17       c5                            763
    x18       obj1                            1
    x18       c9                            203
    x18       c18                           965
    x19       obj1                            1
    x19       c9                            203
    x19       c15                           743
    x19       c16                           721
    x19       c22                           376
    x19       c25                           708
    x20       obj1                            1
    x20       c2                            307
    x20       c16                           732
    x21       obj1                            1
    x21       c2                            748
    x21       c15                           884
    x21       c16                           229
    x21       c17                           880
    x22       obj1                            1
    x22       c19                           171
    x23       obj1                            1
    x23       c24                           284
    x23       c25                           681
    x24       obj1                            1
    x24       c21                           871
    x25       obj1                            1
    x25       c2                            714
    x25       c6                            152
    x26       obj1                            1
    x26       c1                            195
    x26       c4                            960
    x27       obj1                            1
    x27       c10                           267
    x27       c12                           599
    x27       c20                           252
    x28       obj1                            1
    x28       c3                            938
    x28       c24                           188
    x29       obj1                            1
    x29       c18                           961
    x29       c22                           201
    x30       obj1                            1
    x30       c6                            540
    x30       c10                           633
    x30       c24                           521
    x31       obj1                            1
    x31       c2                            217
    x31       c3                            799
    x31       c6                            143
    x31       c8                            515
    x31       c21                           194
    x32       obj1                            1
    x32       c8                            432
    x32       c22                           476
    x33       obj1                            1
    x33       c11                           316
    x34       obj1                            1
    x34       c8                            173
    x34       c13                           494
    x34       c18                           724
    x35       obj1                            1
    x35       c7                            879
    x35       c11                           284
    x36       obj1                            1
    x36       c10                           710
    x37       obj1                            1
    x37       c23                           517
    x38       obj1                            1
    x39       obj1                            1
    x39       c21                           226
    x40       obj1                            1
    x40       c16                           316
    x41       obj1                            1
    x41       c1                            660
    x41       c4                            398
    x41       c8                            327
    x41       c10                           668
    x42       obj1                            1
    x42       c10                           291
    x42       c11                           683
    x42       c19                           860
    x42       c25                           581
    x43       obj1                            1
    x43       c3                            138
    x43       c7                            223
    x43       c11                           268
    x43       c14                           405
    x44       obj1                            1
    x44       c5                            370
    x44       c7                            854
    x44       c10                           529
    x44       c12                           415
    x45       obj1                            1
    x45       c2                            966
    x45       c18                           198
    x46       obj1                            1
    x46       c14                           811
    x46       c18                           144
    x47       obj1                            1
    x47       c15                           194
    x47       c16                           983
    x48       obj1                            1
    x48       c15                           308
    x49       obj1                            1
    x49       c15                           933
    x50       obj1                            1
    x50       c15                           948
    MARK0001  'MARKER'                 'INTEND'
RHS
    rhs       c1                           1011
    rhs       c2                           1890
    rhs       c3                           1363
    rhs       c4                            761
    rhs       c5                           1359
    rhs       c6                            418
    rhs       c7                           1463
    rhs       c8                            784
    rhs       c9                            433
    rhs       c10                          1925
    rhs       c11                          1646
    rhs       c12                          1839
    rhs       c13                           693
    rhs       c14                          1884
    rhs       c15                          2005
    rhs       c16                          1595
    rhs       c17                           688
    rhs       c18                          1984
    rhs       c19                          1341
    rhs       c20                           859
    rhs       c21                           967
    rhs       c22                          1112
    rhs       c23                           555
    rhs       c24                          1385
    rhs       c25                          1540
BOUNDS
 LI bnd       x1        0
 LI bnd       x2        0
 LI bnd       x3        0
 LI bnd       x4        0
 LI bnd       x5        0
 LI bnd       x6        0
 LI bnd       x7        0
 LI bnd       x8        0
 LI bnd       x9        0
 LI bnd       x10       0
 LI bnd       x11       0
 LI bnd       x12       0
 LI bnd       x13       0
 LI bnd       x14       0
 LI bnd       x15       0
 LI bnd       x16       0
 LI bnd       x17       0
 LI bnd       x18       0
 LI bnd       x19       0
 LI bnd       x20       0
 LI bnd       x21       0
 LI bnd       x22       0
 LI bnd       x23       0
 LI bnd       x24       0
 LI bnd       x25       0
 LI bnd       x26       0
 LI bnd       x27       0
 LI bnd       x28       0
 LI bnd       x29       0
 LI bnd       x30       0
 LI bnd       x31       0
 LI bnd       x32       0
 LI bnd       x33       0
 LI bnd       x34       0
 LI bnd       x35       0
 LI bnd       x36       0
 LI bnd       x37       0
 LI bnd       x38       0
 LI bnd       x39       0
 LI bnd       x40       0
 LI bnd       x41       0
 LI bnd       x42       0
 LI bnd       x43       0
 LI bnd       x44       0
 LI bnd       x45       0
 LI bnd       x46       0
 LI bnd       x47       0
 LI bnd       x48       0
 LI bnd       x49       0
 LI bnd       x50       0
ENDATA
